NAME : local_16
TYPE : ATSP
DIMENSION : 10
EDGE_WEIGHT_TYPE : EXPLICIT
EDGE_WEIGHT_FORMAT : FULL_MATRIX
EDGE_WEIGHT_SECTION
0 10000000 10000000 493 10000000 10000000 10000000 727 10000000 10000000 
0 0 856 10000000 658 344 10000000 10000000 10000000 703 
0 856 0 10000000 621 732 654 10000000 727 683 
0 10000000 10000000 0 10000000 10000000 878 258 10000000 1031 
0 658 621 10000000 0 813 10000000 10000000 10000000 1006 
0 344 732 10000000 813 0 931 10000000 10000000 428 
0 10000000 654 878 10000000 931 0 657 347 571 
0 10000000 10000000 258 10000000 10000000 657 0 786 886 
0 10000000 727 10000000 10000000 10000000 347 786 0 898 
0 10000000 10000000 10000000 10000000 10000000 10000000 10000000 10000000 0 
EOF